NAME: Tnm52
COMMENT: Recalculated optimal tour for Tnm52, using concorde got a tour of length 551609.0
TYPE: TOUR
DIMENSION: 52
TOUR_SECTION
1
33
30
27
24
21
18
15
12
9
46
43
40
37
6
3
32
34
29
26
23
20
17
14
11
8
5
2
31
28
36
39
42
25
22
19
16
13
45
48
51
49
52
50
47
44
41
10
7
4
38
35
-1
EOF
